Traveling Salesman Problem/TSP_generados/Aleatorio1620391943_16.tsp
NAME: Aleatorio1620391943_16.tsp
COMMENT: Randomly generated scenario
TYPE: TSP
DIMENSION: 16
EDGE_WEIGHT_TYPE: ATT
NODE_COORD_SECTION
1 9.21 39.05
2 5.25 45.06
3 7.46 5.4
4 7.15 42.85
5 3.29 31.71
6 44.24 31.76
7 46.55 26.88
8 13.79 16.71
9 11.27 4.42
10 36.44 37.21
11 41.25 36.33
12 37.9 4.31
13 10.66 23.49
14 9.77 22.72
15 31.75 7.28
16 35.42 3.1
