Traveling Salesman Problem/TSP_generados/Aleatorio1620391943_16.opt.tour
NAME: Aleatorio1620391943_16.opt.tour
COMMENT: Optimal solution for Aleatorio1620391943_16 (153.2862422673191)
TYPE: TOUR
DIMENSION: 16
TOUR_SECTION
1 4 2 5 13 14 8 3 9 15 16 12 7 6 11 10
-1
EOF
